JOBS = 1..4;
MACHINES = 1..7;
SPEED = 1;
time = array3d(JOBS,MACHINES,1..SPEED,[45,62,15,64,22,98,77,40,95,92,26,81,67,45,19,51,49,63,28,69,84,30,62,57,13,62,84,84]);
energy = array3d(JOBS,MACHINES,1..SPEED,[63,53,86,52,80,37,46,67,38,39,77,44,51,63,82,60,61,53,75,50,43,74,53,56,87,53,43,43]);
precedence = array2d(JOBS,MACHINES,[5,0,6,1,3,2,4,5,3,2,0,6,4,1,5,6,0,4,3,1,2,6,0,3,4,2,1,5]);
ME = 1;
TE = 264;
st_old = array2d(JOBS,MACHINES,[414,62,459,124,300,202,322,374,163,71,0,414,300,26,355,397,0,292,264,49,118,483,0,264,355,202,118,399]);
SpeedScaling = array2d(JOBS,MACHINES,[1,1,1,1,1,1,1,1,1,1,1,1,1,1,1,1,1,1,1,1,1,1,1,1,1,1,1,1]);
